85
500
347	1
338	1
333	1
332	2
330	1
329	2
327	1
325	2
322	1
318	3
314	2
312	2
311	2
307	1
305	1
304	1
302	1
298	2
297	1
293	1
288	1
279	1
275	1
274	1
273	1
269	1
264	1
263	2
260	1
259	1
256	1
252	1
251	1
246	1
245	1
241	1
234	1
233	1
232	1
231	1
228	1
227	1
226	1
214	1
213	1
199	1
193	1
180	1
168	1
158	1
155	1
152	2
149	2
146	1
145	1
143	1
142	1
140	1
137	2
136	1
134	1
133	1
132	1
127	1
126	1
125	1
117	1
112	1
109	1
106	1
104	1
103	1
99	1
96	2
95	1
92	1
91	1
88	1
87	1
85	1
82	2
78	1
74	1
72	1
50	1
